commons/LK_FILES/TIC31-20-20-4.tsp
NAME: TIC31-20-20-4
TYPE: TSP
COMMENT: TSP
DIMENSION: 8
EDGE_WEIGHT_TYPE: EXPLICIT
EDGE_WEIGHT_FORMAT: FULL_MATRIX
EDGE_WEIGHT_SECTION
0 305 427 245 109 281 63 86 
305 0 85 305 363 204 88 92 
427 85 0 221 448 489 268 460 
245 305 221 0 147 153 355 146 
109 363 448 147 0 103 202 467 
281 204 489 153 103 0 145 158 
63 88 268 355 202 145 0 490 
86 92 460 146 467 158 490 0 
EOF
