commons/LK_FILES/TIC31-20-20-4.tour
NAME : TIC31-20-20-4.942.tour
COMMENT : Length = 942
COMMENT : Found by LKH [Keld Helsgaun] Mon Oct 31 15:10:03 2016
TYPE : TOUR
DIMENSION : 8
TOUR_SECTION
1
7
6
5
4
3
2
8
-1
EOF
